(set-logic QF_S)
(declare-fun _var_0xINPUT_104649_() String)
(declare-fun __woorpje_diseq_pref0_() String)
(declare-fun __woorpje_diseq_suf_l0_() String)
(declare-fun __woorpje_diseq_suf_r0_() String)
(assert (=(str.++  "8g9JFHEy8A" "")(str.++ _var_0xINPUT_104649_  "")) )
(check-sat)
